<?xml version = "1.0" standalone="yes"?>
<!-- This file has been generated by DOcplex version 2.23.222  -->
<CPLEXSolution version="1.0">
 <header
   problemName="CVRP"
   objectiveValue="6841.83"
  />
 <variables>
  <variable name="x_0_2" index="1" value="1.00000"/>
  <variable name="x_0_3" index="2" value="1.00000"/>
  <variable name="x_0_8" index="7" value="1.00000"/>
  <variable name="x_0_11" index="10" value="1.00000"/>
  <variable name="x_0_12" index="11" value="1.00000"/>
  <variable name="x_0_13" index="12" value="1.00000"/>
  <variable name="x_1_0" index="13" value="1.00000"/>
  <variable name="x_2_10" index="35" value="1.00000"/>
  <variable name="x_3_5" index="43" value="1.00000"/>
  <variable name="x_4_0" index="52" value="1.00000"/>
  <variable name="x_5_0" index="65" value="1.00000"/>
  <variable name="x_6_0" index="78" value="1.00000"/>
  <variable name="x_7_0" index="91" value="1.00000"/>
  <variable name="x_8_9" index="112" value="1.00000"/>
  <variable name="x_9_4" index="121" value="1.00000"/>
  <variable name="x_10_0" index="130" value="1.00000"/>
  <variable name="x_11_1" index="144" value="1.00000"/>
  <variable name="x_12_7" index="163" value="1.00000"/>
  <variable name="x_13_6" index="175" value="1.00000"/>
  <variable name="u_1" index="182" value="58.00000"/>
  <variable name="u_2" index="183" value="29.00000"/>
  <variable name="u_3" index="184" value="9.00000"/>
  <variable name="u_4" index="185" value="64.00000"/>
  <variable name="u_5" index="186" value="68.00000"/>
  <variable name="u_6" index="187" value="70.00000"/>
  <variable name="u_7" index="188" value="57.00000"/>
  <variable name="u_8" index="189" value="26.00000"/>
  <variable name="u_9" index="190" value="34.00000"/>
  <variable name="u_10" index="191" value="64.00000"/>
  <variable name="u_11" index="192" value="52.00000"/>
  <variable name="u_12" index="193" value="50.00000"/>
  <variable name="u_13" index="194" value="26.00000"/>
 </variables>
</CPLEXSolution>
